
Gurobi 8.1.1 (win64, Python) logging started 04/27/20 12:20:47

Academic license - for non-commercial use only

Gurobi 8.1.1 (win64, Python) logging started 04/29/20 11:47:43

Academic license - for non-commercial use only
